p cnf 22 52
a 4 13 0
e 1 2 3 5 6 7 8 9 10 11 12 14 15 16 17 18 19 20 21 22 0
3 1 0
3 2 0
-1 -2 -3 0
-4 -3 0
-4 -1 0
3 1 4 0
-2 5 -6 0
2 -5 -6 0
-2 -5 6 0
2 5 6 0
4 -6 -7 0
-4 6 -7 0
4 6 7 0
-4 -6 7 0
-10 8 0
-10 -9 0
-8 9 10 0
5 -11 -12 0
-5 11 -12 0
5 11 12 0
-5 -11 12 0
-14 2 0
-14 8 0
-2 -8 14 0
-13 -14 -15 0
13 14 -15 0
-13 14 15 0
13 -14 15 0
-16 -12 0
-16 15 0
12 -15 16 0
-17 10 0
-17 -16 0
-10 16 17 0
-19 -13 0
-19 -1 0
13 1 19 0
20 18 0
20 -19 0
-18 19 -20 0
21 17 0
21 20 0
-17 -20 -21 0
22 -7 0
22 -21 0
7 21 -22 0
-9 -1 15 0
20 12 6 5 -22 0
7 1 -21 -3 -18 0
-18 -5 4 0
2 -17 1 0
22 0
